p cnf 208 1359
90 117 192 0
93 119 194 0
94 95 111 0
68 80 100 151 0
66 103 123 134 0
113 136 137 139 0
101 141 198 0
98 115 200 0
143 202 0
129 130 205 0
76 79 181 0
74 92 0
186 188 0
88 89 102 0
70 116 0
69 118 195 0
67 84 154 0
64 106 122 0
82 96 0
108 120 128 0
60 110 131 0
72 144 0
86 146 148 0
63 105 125 150 153 0
114 135 156 157 0
140 158 159 161 162 0
142 163 165 0
99 167 169 170 0
109 121 172 173 174 0
175 176 177 0
180 183 185 187 189 0
145 190 191 0
75 193 0
81 149 196 0
107 126 152 155 0
138 164 197 0
83 199 201 0
61 179 0
77 203 204 206 208 0
58 59 78 182 184 0
54 56 57 0
47 48 49 50 52 0
44 46 73 85 147 0
43 62 104 124 0
40 41 42 160 0
36 37 38 39 166 0
34 35 168 171 0
-95 -151 0
-66 -95 0
-95 -136 0
-95 -200 0
-66 -151 0
-136 -151 0
-151 -200 0
-66 -136 0
-66 -200 0
-136 -200 0
-130 -181 0
-55 -130 0
-33 -130 0
-45 -130 0
-55 -181 0
-33 -181 0
-45 -181 0
-33 -55 0
-45 -55 0
-33 -45 0
-82 -120 0
-32 -82 0
-60 -82 0
-82 -207 0
-32 -120 0
-60 -120 0
-120 -207 0
-32 -60 0
-32 -207 0
-60 -207 0
-146 -150 0
-146 -156 0
-146 -158 0
-146 -163 0
-150 -156 0
-150 -158 0
-150 -163 0
-156 -158 0
-156 -163 0
-158 -163 0
-31 -180 0
-31 -190 0
-31 -87 0
-31 -193 0
-31 -196 0
-30 -31 0
-180 -190 0
-87 -180 0
-180 -193 0
-180 -196 0
-30 -180 0
-87 -190 0
-190 -193 0
-190 -196 0
-30 -190 0
-87 -193 0
-87 -196 0
-30 -87 0
-193 -196 0
-30 -193 0
-30 -196 0
-138 -199 0
-97 -138 0
-29 -138 0
-138 -179 0
-138 -203 0
-57 -138 0
-97 -199 0
-29 -199 0
-179 -199 0
-199 -203 0
-57 -199 0
-29 -97 0
-97 -179 0
-97 -203 0
-57 -97 0
-29 -179 0
-29 -203 0
-29 -57 0
-179 -203 0
-57 -179 0
-57 -203 0
-52 -73 0
-28 -52 0
-52 -62 0
-26 -52 0
-52 -160 0
-35 -52 0
-28 -73 0
-62 -73 0
-26 -73 0
-73 -160 0
-35 -73 0
-28 -62 0
-26 -28 0
-28 -160 0
-28 -35 0
-26 -62 0
-62 -160 0
-35 -62 0
-26 -160 0
-26 -35 0
-35 -160 0
-82 -146 0
-31 -82 0
-82 -138 0
-52 -82 0
-31 -146 0
-138 -146 0
-52 -146 0
-31 -138 0
-31 -52 0
-52 -138 0
-120 -150 0
-120 -180 0
-120 -199 0
-73 -120 0
-150 -180 0
-150 -199 0
-73 -150 0
-180 -199 0
-73 -180 0
-73 -199 0
-95 -130 0
-32 -95 0
-95 -156 0
-95 -190 0
-95 -97 0
-28 -95 0
-32 -130 0
-130 -156 0
-130 -190 0
-97 -130 0
-28 -130 0
-32 -156 0
-32 -190 0
-32 -97 0
-28 -32 0
-156 -190 0
-97 -156 0
-28 -156 0
-97 -190 0
-28 -190 0
-28 -97 0
-151 -181 0
-60 -151 0
-151 -158 0
-87 -151 0
-29 -151 0
-62 -151 0
-60 -181 0
-158 -181 0
-87 -181 0
-29 -181 0
-62 -181 0
-60 -158 0
-60 -87 0
-29 -60 0
-60 -62 0
-87 -158 0
-29 -158 0
-62 -158 0
-29 -87 0
-62 -87 0
-29 -62 0
-55 -66 0
-66 -207 0
-66 -163 0
-66 -193 0
-66 -179 0
-26 -66 0
-55 -207 0
-55 -163 0
-55 -193 0
-55 -179 0
-26 -55 0
-163 -207 0
-193 -207 0
-179 -207 0
-26 -207 0
-163 -193 0
-163 -179 0
-26 -163 0
-179 -193 0
-26 -193 0
-26 -179 0
-33 -136 0
-136 -196 0
-136 -203 0
-136 -160 0
-33 -196 0
-33 -203 0
-33 -160 0
-196 -203 0
-160 -196 0
-160 -203 0
-45 -200 0
-30 -200 0
-57 -200 0
-35 -200 0
-30 -45 0
-45 -57 0
-35 -45 0
-30 -57 0
-30 -35 0
-35 -57 0
-102 -186 0
-70 -186 0
-69 -186 0
-25 -186 0
-112 -186 0
-70 -102 0
-69 -102 0
-25 -102 0
-102 -112 0
-69 -70 0
-25 -70 0
-70 -112 0
-25 -69 0
-69 -112 0
-25 -112 0
-96 -108 0
-24 -96 0
-96 -110 0
-96 -144 0
-23 -96 0
-24 -108 0
-108 -110 0
-108 -144 0
-23 -108 0
-24 -110 0
-24 -144 0
-23 -24 0
-110 -144 0
-23 -110 0
-23 -144 0
-148 -153 0
-135 -148 0
-148 -159 0
-121 -148 0
-148 -175 0
-135 -153 0
-153 -159 0
-121 -153 0
-153 -175 0
-135 -159 0
-121 -135 0
-135 -175 0
-121 -159 0
-159 -175 0
-121 -175 0
-22 -183 0
-22 -191 0
-21 -22 0
-22 -152 0
-22 -65 0
-183 -191 0
-21 -183 0
-152 -183 0
-65 -183 0
-21 -191 0
-152 -191 0
-65 -191 0
-21 -152 0
-21 -65 0
-65 -152 0
-164 -201 0
-20 -164 0
-127 -164 0
-164 -182 0
-56 -164 0
-20 -201 0
-127 -201 0
-182 -201 0
-56 -201 0
-20 -127 0
-20 -182 0
-20 -56 0
-127 -182 0
-56 -127 0
-56 -182 0
-46 -50 0
-19 -50 0
-50 -124 0
-39 -50 0
-34 -50 0
-19 -46 0
-46 -124 0
-39 -46 0
-34 -46 0
-19 -124 0
-19 -39 0
-19 -34 0
-39 -124 0
-34 -124 0
-34 -39 0
-96 -186 0
-148 -186 0
-22 -186 0
-164 -186 0
-50 -186 0
-96 -148 0
-22 -96 0
-96 -164 0
-50 -96 0
-22 -148 0
-148 -164 0
-50 -148 0
-22 -164 0
-22 -50 0
-50 -164 0
-102 -108 0
-102 -153 0
-102 -183 0
-102 -201 0
-46 -102 0
-108 -153 0
-108 -183 0
-108 -201 0
-46 -108 0
-153 -183 0
-153 -201 0
-46 -153 0
-183 -201 0
-46 -183 0
-46 -201 0
-24 -70 0
-70 -135 0
-70 -191 0
-20 -70 0
-19 -70 0
-24 -135 0
-24 -191 0
-20 -24 0
-19 -24 0
-135 -191 0
-20 -135 0
-19 -135 0
-20 -191 0
-19 -191 0
-19 -20 0
-69 -110 0
-69 -159 0
-21 -69 0
-69 -127 0
-69 -124 0
-110 -159 0
-21 -110 0
-110 -127 0
-110 -124 0
-21 -159 0
-127 -159 0
-124 -159 0
-21 -127 0
-21 -124 0
-124 -127 0
-25 -144 0
-25 -121 0
-25 -152 0
-25 -182 0
-25 -39 0
-121 -144 0
-144 -152 0
-144 -182 0
-39 -144 0
-121 -152 0
-121 -182 0
-39 -121 0
-152 -182 0
-39 -152 0
-39 -182 0
-23 -112 0
-112 -175 0
-65 -112 0
-56 -112 0
-34 -112 0
-23 -175 0
-23 -65 0
-23 -56 0
-23 -34 0
-65 -175 0
-56 -175 0
-34 -175 0
-56 -65 0
-34 -65 0
-34 -56 0
-90 -93 0
-90 -94 0
-68 -90 0
-90 -123 0
-93 -94 0
-68 -93 0
-93 -123 0
-68 -94 0
-94 -123 0
-68 -123 0
-18 -143 0
-18 -205 0
-18 -79 0
-18 -53 0
-143 -205 0
-79 -143 0
-53 -143 0
-79 -205 0
-53 -205 0
-53 -79 0
-116 -118 0
-84 -116 0
-64 -116 0
-16 -116 0
-84 -118 0
-64 -118 0
-16 -118 0
-64 -84 0
-16 -84 0
-16 -64 0
-140 -157 0
-142 -157 0
-99 -157 0
-109 -157 0
-140 -142 0
-99 -140 0
-109 -140 0
-99 -142 0
-109 -142 0
-99 -109 0
-15 -185 0
-15 -145 0
-14 -15 0
-15 -75 0
-15 -149 0
-15 -155 0
-145 -185 0
-14 -185 0
-75 -185 0
-149 -185 0
-155 -185 0
-14 -145 0
-75 -145 0
-145 -149 0
-145 -155 0
-14 -75 0
-14 -149 0
-14 -155 0
-75 -149 0
-75 -155 0
-149 -155 0
-83 -197 0
-13 -197 0
-12 -197 0
-61 -197 0
-197 -204 0
-184 -197 0
-13 -83 0
-12 -83 0
-61 -83 0
-83 -204 0
-83 -184 0
-12 -13 0
-13 -61 0
-13 -204 0
-13 -184 0
-12 -61 0
-12 -204 0
-12 -184 0
-61 -204 0
-61 -184 0
-184 -204 0
-44 -49 0
-11 -49 0
-43 -49 0
-10 -49 0
-42 -49 0
-38 -49 0
-11 -44 0
-43 -44 0
-10 -44 0
-42 -44 0
-38 -44 0
-11 -43 0
-10 -11 0
-11 -42 0
-11 -38 0
-10 -43 0
-42 -43 0
-38 -43 0
-10 -42 0
-10 -38 0
-38 -42 0
-18 -90 0
-15 -90 0
-90 -197 0
-49 -90 0
-15 -18 0
-18 -197 0
-18 -49 0
-15 -197 0
-15 -49 0
-49 -197 0
-93 -143 0
-93 -185 0
-83 -93 0
-44 -93 0
-143 -185 0
-83 -143 0
-44 -143 0
-83 -185 0
-44 -185 0
-44 -83 0
-94 -205 0
-94 -116 0
-94 -157 0
-94 -145 0
-13 -94 0
-11 -94 0
-116 -205 0
-157 -205 0
-145 -205 0
-13 -205 0
-11 -205 0
-116 -157 0
-116 -145 0
-13 -116 0
-11 -116 0
-145 -157 0
-13 -157 0
-11 -157 0
-13 -145 0
-11 -145 0
-11 -13 0
-68 -79 0
-68 -118 0
-68 -140 0
-14 -68 0
-12 -68 0
-43 -68 0
-79 -118 0
-79 -140 0
-14 -79 0
-12 -79 0
-43 -79 0
-118 -140 0
-14 -118 0
-12 -118 0
-43 -118 0
-14 -140 0
-12 -140 0
-43 -140 0
-12 -14 0
-14 -43 0
-12 -43 0
-53 -123 0
-84 -123 0
-123 -142 0
-75 -123 0
-61 -123 0
-10 -123 0
-53 -84 0
-53 -142 0
-53 -75 0
-53 -61 0
-10 -53 0
-84 -142 0
-75 -84 0
-61 -84 0
-10 -84 0
-75 -142 0
-61 -142 0
-10 -142 0
-61 -75 0
-10 -75 0
-10 -61 0
-64 -99 0
-64 -149 0
-64 -204 0
-42 -64 0
-99 -149 0
-99 -204 0
-42 -99 0
-149 -204 0
-42 -149 0
-42 -204 0
-16 -109 0
-16 -155 0
-16 -184 0
-16 -38 0
-109 -155 0
-109 -184 0
-38 -109 0
-155 -184 0
-38 -155 0
-38 -184 0
-100 -111 0
-111 -137 0
-111 -141 0
-111 -115 0
-100 -137 0
-100 -141 0
-100 -115 0
-137 -141 0
-115 -137 0
-115 -141 0
-76 -129 0
-71 -129 0
-92 -129 0
-9 -129 0
-71 -76 0
-76 -92 0
-9 -76 0
-71 -92 0
-9 -71 0
-9 -92 0
-106 -188 0
-133 -188 0
-8 -188 0
-106 -133 0
-8 -106 0
-8 -133 0
-86 -167 0
-86 -172 0
-86 -176 0
-167 -172 0
-167 -176 0
-172 -176 0
-7 -17 0
-7 -206 0
-7 -78 0
-7 -54 0
-17 -206 0
-17 -78 0
-17 -54 0
-78 -206 0
-54 -206 0
-54 -78 0
-6 -104 0
-6 -41 0
-6 -37 0
-6 -168 0
-41 -104 0
-37 -104 0
-104 -168 0
-37 -41 0
-41 -168 0
-37 -168 0
-86 -188 0
-111 -129 0
-7 -111 0
-6 -111 0
-7 -129 0
-6 -129 0
-6 -7 0
-76 -100 0
-17 -100 0
-100 -104 0
-17 -76 0
-76 -104 0
-17 -104 0
-71 -137 0
-106 -137 0
-137 -167 0
-137 -206 0
-41 -137 0
-71 -106 0
-71 -167 0
-71 -206 0
-41 -71 0
-106 -167 0
-106 -206 0
-41 -106 0
-167 -206 0
-41 -167 0
-41 -206 0
-92 -141 0
-133 -141 0
-141 -172 0
-78 -141 0
-37 -141 0
-92 -133 0
-92 -172 0
-78 -92 0
-37 -92 0
-133 -172 0
-78 -133 0
-37 -133 0
-78 -172 0
-37 -172 0
-37 -78 0
-9 -115 0
-8 -115 0
-115 -176 0
-54 -115 0
-115 -168 0
-8 -9 0
-9 -176 0
-9 -54 0
-9 -168 0
-8 -176 0
-8 -54 0
-8 -168 0
-54 -176 0
-168 -176 0
-54 -168 0
-80 -103 0
-88 -195 0
-67 -88 0
-67 -195 0
-63 -161 0
-63 -165 0
-161 -165 0
-63 -88 0
-80 -195 0
-80 -161 0
-161 -195 0
-67 -103 0
-103 -165 0
-67 -165 0
-101 -113 0
-128 -131 0
-125 -162 0
-59 -208 0
-125 -128 0
-131 -162 0
-113 -208 0
-59 -101 0
-117 -119 0
-5 -187 0
-5 -126 0
-126 -187 0
-48 -147 0
-36 -48 0
-36 -147 0
-5 -117 0
-48 -117 0
-5 -48 0
-119 -187 0
-119 -147 0
-147 -187 0
-36 -126 0
-89 -122 0
-4 -89 0
-4 -122 0
-105 -169 0
-105 -173 0
-169 -173 0
-58 -77 0
-89 -105 0
-122 -169 0
-77 -122 0
-77 -169 0
-4 -173 0
-4 -58 0
-58 -173 0
-192 -194 0
-139 -192 0
-192 -198 0
-98 -192 0
-139 -194 0
-194 -198 0
-98 -194 0
-139 -198 0
-98 -139 0
-98 -198 0
-178 -202 0
-51 -178 0
-74 -178 0
-27 -178 0
-51 -202 0
-74 -202 0
-27 -202 0
-51 -74 0
-27 -51 0
-27 -74 0
-2 -3 0
-3 -72 0
-3 -91 0
-2 -72 0
-2 -91 0
-72 -91 0
-114 -170 0
-114 -174 0
-114 -177 0
-170 -174 0
-170 -177 0
-174 -177 0
-1 -189 0
-1 -81 0
-1 -107 0
-1 -132 0
-81 -189 0
-107 -189 0
-132 -189 0
-81 -107 0
-81 -132 0
-107 -132 0
-47 -85 0
-40 -47 0
-47 -166 0
-47 -171 0
-40 -85 0
-85 -166 0
-85 -171 0
-40 -166 0
-40 -171 0
-166 -171 0
-178 -192 0
-1 -192 0
-47 -192 0
-1 -178 0
-47 -178 0
-1 -47 0
-194 -202 0
-189 -194 0
-85 -194 0
-189 -202 0
-85 -202 0
-85 -189 0
-3 -114 0
-51 -139 0
-2 -139 0
-139 -170 0
-81 -139 0
-40 -139 0
-2 -51 0
-51 -170 0
-51 -81 0
-40 -51 0
-2 -170 0
-2 -81 0
-2 -40 0
-81 -170 0
-40 -170 0
-40 -81 0
-74 -198 0
-72 -198 0
-174 -198 0
-107 -198 0
-166 -198 0
-72 -74 0
-74 -174 0
-74 -107 0
-74 -166 0
-72 -174 0
-72 -107 0
-72 -166 0
-107 -174 0
-166 -174 0
-107 -166 0
-27 -98 0
-91 -98 0
-98 -177 0
-98 -132 0
-98 -171 0
-27 -91 0
-27 -177 0
-27 -132 0
-27 -171 0
-91 -177 0
-91 -132 0
-91 -171 0
-132 -177 0
-171 -177 0
-132 -171 0
-90 -93 0
-18 -90 0
-90 -143 0
-18 -93 0
-93 -143 0
-18 -143 0
-117 -119 0
-192 -194 0
-178 -192 0
-192 -202 0
-178 -194 0
-194 -202 0
-178 -202 0
-95 -151 0
-66 -95 0
-95 -130 0
-95 -181 0
-55 -95 0
-66 -151 0
-130 -151 0
-151 -181 0
-55 -151 0
-66 -130 0
-66 -181 0
-55 -66 0
-130 -181 0
-55 -130 0
-55 -181 0
-68 -94 0
-94 -123 0
-94 -205 0
-79 -94 0
-53 -94 0
-68 -123 0
-68 -205 0
-68 -79 0
-53 -68 0
-123 -205 0
-79 -123 0
-53 -123 0
-79 -205 0
-53 -205 0
-53 -79 0
-100 -111 0
-111 -129 0
-76 -111 0
-100 -129 0
-76 -100 0
-76 -129 0
-80 -103 0
-136 -200 0
-33 -136 0
-45 -136 0
-33 -200 0
-45 -200 0
-33 -45 0
-137 -141 0
-115 -137 0
-71 -137 0
-92 -137 0
-9 -137 0
-115 -141 0
-71 -141 0
-92 -141 0
-9 -141 0
-71 -115 0
-92 -115 0
-9 -115 0
-71 -92 0
-9 -71 0
-9 -92 0
-101 -113 0
-139 -198 0
-98 -139 0
-51 -139 0
-74 -139 0
-27 -139 0
-98 -198 0
-51 -198 0
-74 -198 0
-27 -198 0
-51 -98 0
-74 -98 0
-27 -98 0
-51 -74 0
-27 -51 0
-27 -74 0
-82 -120 0
-82 -146 0
-82 -150 0
-120 -146 0
-120 -150 0
-146 -150 0
-102 -186 0
-96 -186 0
-108 -186 0
-148 -186 0
-153 -186 0
-96 -102 0
-102 -108 0
-102 -148 0
-102 -153 0
-96 -108 0
-96 -148 0
-96 -153 0
-108 -148 0
-108 -153 0
-148 -153 0
-86 -188 0
-63 -88 0
-125 -128 0
-89 -105 0
-32 -60 0
-32 -207 0
-32 -156 0
-32 -158 0
-32 -163 0
-60 -207 0
-60 -156 0
-60 -158 0
-60 -163 0
-156 -207 0
-158 -207 0
-163 -207 0
-156 -158 0
-156 -163 0
-158 -163 0
-69 -70 0
-24 -70 0
-70 -110 0
-70 -135 0
-70 -159 0
-24 -69 0
-69 -110 0
-69 -135 0
-69 -159 0
-24 -110 0
-24 -135 0
-24 -159 0
-110 -135 0
-110 -159 0
-135 -159 0
-116 -118 0
-84 -116 0
-116 -157 0
-116 -140 0
-116 -142 0
-84 -118 0
-118 -157 0
-118 -140 0
-118 -142 0
-84 -157 0
-84 -140 0
-84 -142 0
-140 -157 0
-142 -157 0
-140 -142 0
-67 -195 0
-161 -195 0
-165 -195 0
-67 -161 0
-67 -165 0
-161 -165 0
-131 -162 0
-3 -114 0
-25 -112 0
-25 -144 0
-23 -25 0
-25 -121 0
-25 -175 0
-112 -144 0
-23 -112 0
-112 -121 0
-112 -175 0
-23 -144 0
-121 -144 0
-144 -175 0
-23 -121 0
-23 -175 0
-121 -175 0
-16 -64 0
-64 -99 0
-64 -109 0
-16 -99 0
-16 -109 0
-99 -109 0
-106 -133 0
-8 -106 0
-106 -167 0
-106 -172 0
-106 -176 0
-8 -133 0
-133 -167 0
-133 -172 0
-133 -176 0
-8 -167 0
-8 -172 0
-8 -176 0
-167 -172 0
-167 -176 0
-172 -176 0
-4 -122 0
-122 -169 0
-122 -173 0
-4 -169 0
-4 -173 0
-169 -173 0
-2 -72 0
-2 -91 0
-2 -170 0
-2 -174 0
-2 -177 0
-72 -91 0
-72 -170 0
-72 -174 0
-72 -177 0
-91 -170 0
-91 -174 0
-91 -177 0
-170 -174 0
-170 -177 0
-174 -177 0
-31 -180 0
-31 -138 0
-31 -199 0
-31 -52 0
-31 -73 0
-138 -180 0
-180 -199 0
-52 -180 0
-73 -180 0
-138 -199 0
-52 -138 0
-73 -138 0
-52 -199 0
-73 -199 0
-52 -73 0
-22 -183 0
-22 -164 0
-22 -201 0
-22 -50 0
-22 -46 0
-164 -183 0
-183 -201 0
-50 -183 0
-46 -183 0
-164 -201 0
-50 -164 0
-46 -164 0
-50 -201 0
-46 -201 0
-46 -50 0
-15 -185 0
-15 -197 0
-15 -83 0
-15 -49 0
-15 -44 0
-185 -197 0
-83 -185 0
-49 -185 0
-44 -185 0
-83 -197 0
-49 -197 0
-44 -197 0
-49 -83 0
-44 -83 0
-44 -49 0
-5 -187 0
-5 -48 0
-5 -147 0
-48 -187 0
-147 -187 0
-48 -147 0
-1 -189 0
-1 -47 0
-1 -85 0
-47 -189 0
-85 -189 0
-47 -85 0
-87 -190 0
-190 -193 0
-97 -190 0
-29 -190 0
-179 -190 0
-28 -190 0
-62 -190 0
-26 -190 0
-87 -193 0
-87 -97 0
-29 -87 0
-87 -179 0
-28 -87 0
-62 -87 0
-26 -87 0
-97 -193 0
-29 -193 0
-179 -193 0
-28 -193 0
-62 -193 0
-26 -193 0
-29 -97 0
-97 -179 0
-28 -97 0
-62 -97 0
-26 -97 0
-29 -179 0
-28 -29 0
-29 -62 0
-26 -29 0
-28 -179 0
-62 -179 0
-26 -179 0
-28 -62 0
-26 -28 0
-26 -62 0
-21 -191 0
-20 -191 0
-127 -191 0
-19 -191 0
-124 -191 0
-20 -21 0
-21 -127 0
-19 -21 0
-21 -124 0
-20 -127 0
-19 -20 0
-20 -124 0
-19 -127 0
-124 -127 0
-19 -124 0
-14 -145 0
-75 -145 0
-13 -145 0
-12 -145 0
-61 -145 0
-11 -145 0
-43 -145 0
-10 -145 0
-14 -75 0
-13 -14 0
-12 -14 0
-14 -61 0
-11 -14 0
-14 -43 0
-10 -14 0
-13 -75 0
-12 -75 0
-61 -75 0
-11 -75 0
-43 -75 0
-10 -75 0
-12 -13 0
-13 -61 0
-11 -13 0
-13 -43 0
-10 -13 0
-12 -61 0
-11 -12 0
-12 -43 0
-10 -12 0
-11 -61 0
-43 -61 0
-10 -61 0
-11 -43 0
-10 -11 0
-10 -43 0
-7 -17 0
-6 -7 0
-7 -104 0
-6 -17 0
-17 -104 0
-6 -104 0
-30 -196 0
-196 -203 0
-57 -196 0
-160 -196 0
-35 -196 0
-30 -203 0
-30 -57 0
-30 -160 0
-30 -35 0
-57 -203 0
-160 -203 0
-35 -203 0
-57 -160 0
-35 -57 0
-35 -160 0
-65 -152 0
-152 -182 0
-56 -152 0
-39 -152 0
-34 -152 0
-65 -182 0
-56 -65 0
-39 -65 0
-34 -65 0
-56 -182 0
-39 -182 0
-34 -182 0
-39 -56 0
-34 -56 0
-34 -39 0
-149 -155 0
-149 -204 0
-149 -184 0
-42 -149 0
-38 -149 0
-155 -204 0
-155 -184 0
-42 -155 0
-38 -155 0
-184 -204 0
-42 -204 0
-38 -204 0
-42 -184 0
-38 -184 0
-38 -42 0
-78 -206 0
-54 -206 0
-41 -206 0
-37 -206 0
-168 -206 0
-54 -78 0
-41 -78 0
-37 -78 0
-78 -168 0
-41 -54 0
-37 -54 0
-54 -168 0
-37 -41 0
-41 -168 0
-37 -168 0
-59 -208 0
-36 -126 0
-58 -77 0
-81 -107 0
-81 -132 0
-40 -81 0
-81 -166 0
-81 -171 0
-107 -132 0
-40 -107 0
-107 -166 0
-107 -171 0
-40 -132 0
-132 -166 0
-132 -171 0
-40 -166 0
-40 -171 0
-166 -171 0
